<?xml version = "1.0" encoding="UTF-8" standalone="yes"?>
<CPLEXSolution version="1.2">
 <header
   problemName="inst_14_cut_n5"
   objectiveValue="2.3529411764705883"
   solutionTypeValue="1"
   solutionTypeString="basic"
   solutionStatusValue="1"
   solutionStatusString="optimal"
   solutionMethodString="dual"
   primalFeasible="1"
   dualFeasible="1"
   simplexIterations="1"
   writeLevel="1"/>
 <quality
   epRHS="9.9999999999999995e-07"
   epOpt="9.9999999999999995e-07"
   maxPrimalInfeas="0"
   maxDualInfeas="0"
   maxPrimalResidual="1.2434497875801753e-14"
   maxDualResidual="0"
   maxX="0.64705882352941124"
   maxPi="50.117647058823529"
   maxSlack="185.94117647058823"
   maxRedCost="0"
   kappa="816.8486274509836"/>
 <linearConstraints>
  <constraint name="c0" index="0" status="BS" slack="135.05882352941177" dual="-0"/>
  <constraint name="c1" index="1" status="BS" slack="134.29411764705881" dual="-0"/>
  <constraint name="c2" index="2" status="BS" slack="185.94117647058823" dual="-0"/>
  <constraint name="c3" index="3" status="BS" slack="89.411764705882348" dual="-0"/>
  <constraint name="c4" index="4" status="LL" slack="0" dual="-0"/>
  <constraint name="c5" index="5" status="BS" slack="143.35294117647058" dual="-0"/>
  <constraint name="c6" index="6" status="BS" slack="160.1764705882353" dual="-0"/>
  <constraint name="c7" index="7" status="BS" slack="24.058823529411764" dual="-0"/>
  <constraint name="c8" index="8" status="BS" slack="163" dual="-0"/>
  <constraint name="c9" index="9" status="BS" slack="3" dual="-0"/>
  <constraint name="cut_1" index="10" status="BS" slack="0.2352941176470571" dual="-0"/>
  <constraint name="cut_2" index="11" status="LL" slack="0" dual="1.1764705882352942"/>
  <constraint name="cut_3" index="12" status="BS" slack="0.23529411764704822" dual="-0"/>
  <constraint name="cut_4" index="13" status="BS" slack="0.1764705882352926" dual="-0"/>
  <constraint name="cut_5" index="14" status="LL" slack="0" dual="50.117647058823529"/>
 </linearConstraints>
 <variables>
  <variable name="x0" index="0" status="BS" value="0.11764705882352941" reducedCost="0"/>
  <variable name="x1" index="1" status="BS" value="0" reducedCost="0"/>
  <variable name="s0" index="2" status="LL" value="0" reducedCost="0"/>
  <variable name="s1" index="3" status="LL" value="0" reducedCost="0"/>
  <variable name="s2" index="4" status="LL" value="0" reducedCost="0"/>
  <variable name="s3" index="5" status="LL" value="0" reducedCost="0"/>
  <variable name="s4" index="6" status="BS" value="0.64705882352941124" reducedCost="0"/>
  <variable name="s5" index="7" status="LL" value="0" reducedCost="0"/>
  <variable name="s6" index="8" status="LL" value="0" reducedCost="0"/>
  <variable name="s7" index="9" status="LL" value="0" reducedCost="0"/>
  <variable name="s8" index="10" status="LL" value="0" reducedCost="0"/>
  <variable name="s9" index="11" status="LL" value="0" reducedCost="0"/>
 </variables>
 <objectiveValues>
  <objective index="0" name="" value="2.3529411764705883"/>
 </objectiveValues>
</CPLEXSolution>
